(declare-fun lq_anf$36$$35$$35$7205759403792815475$35$$35$d5GP () Int)
(declare-fun Data.Type.Coercion.Coercion () Int)
(declare-fun lq_anf$36$$35$$35$7205759403792815457$35$$35$d5Gx () Int)
(declare-fun VV$35$$35$F$35$$35$7 () Int)
(declare-fun GHC.Stack.Types.FreezeCallStack () Int)
(declare-fun GHC.Word.W64$35$ () Int)
(declare-fun Data.ByteString.Internal.Type.BS () Int)
(declare-fun Data.Semigroup.Internal.Any () Int)
(declare-fun GHC.TypeNats.SomeNat () Int)
(declare-fun GHC.IO.Unmasked () Int)
(declare-fun GHC.MVar.MVar () Int)
(declare-fun Control.Concurrent.QSemN.$36$WQSemN () Int)
(declare-fun lq_anf$36$$35$$35$7205759403792815479$35$$35$d5GT () Bool)
(declare-fun Data.Type.Equality.$36$WRefl () Int)
(declare-fun autolen () Int)
(declare-fun lq_anf$36$$35$$35$7205759403792815449$35$$35$d5Gp () Str)
(declare-fun GHC.Stack.Types.pushCallStack () Int)
(declare-fun Data.Either.Right () Int)
(declare-fun GHC.Stack.Types.PushCallStack () Int)
(declare-fun GHC.Word.W16$35$ () Int)
(declare-fun GHC.Base.$43$$43$ () Int)
(declare-fun lq_anf$36$$35$$35$7205759403792815482$35$$35$d5GW () Str)
(declare-fun GHC.Types.True () Bool)
(declare-fun GHC.Base.. () Int)
(declare-fun lq_tmp$36$x$35$$35$540 () Int)
(declare-fun lq_anf$36$$35$$35$7205759403792815446$35$$35$d5Gm () Str)
(declare-fun head () Int)
(declare-fun Data.Text.Encoding.Error.DecodeError () Int)
(declare-fun tail () Int)
(declare-fun GHC.Classes.compare () Int)
(declare-fun lq_karg$36$VV$35$$35$802$35$$35$k_$35$$35$803 () Int)
(declare-fun GHC.Real.quot () Int)
(declare-fun lq_tmp$36$x$35$$35$497 () Int)
(declare-fun lq_karg$36$n$35$$35$a1wt$35$$35$k_$35$$35$841 () Int)
(declare-fun VV$35$$35$F$35$$35$3 () Int)
(declare-fun GHC.Real.$36$W$58$$37$ () Int)
(declare-fun GHC.Float.sin () Int)
(declare-fun x_Tuple21 () Int)
(declare-fun GHC.TypeLits.SomeSymbol () Int)
(declare-fun GHC.IO.Handle.Types.FileHandle () Int)
(declare-fun lq_anf$36$$35$$35$7205759403792815455$35$$35$d5Gv () Int)
(declare-fun GHC.Generics.K1 () Int)
(declare-fun Data.Text.Internal.$36$WText () Int)
(declare-fun Data.ByteString.Lazy.Internal.Chunk () Int)
(declare-fun VV$35$$35$F$35$$35$2 () Int)
(declare-fun RefinementHelper.filterInvalid () Int)
(declare-fun lq_anf$36$$35$$35$7205759403792815469$35$$35$d5GJ () Int)
(declare-fun GHC.IO.Exception.ExitSuccess () Int)
(declare-fun VV$35$$35$F$35$$35$1 () Int)
(declare-fun lq_karg$36$lq_anf$36$$35$$35$7205759403792815482$35$$35$d5GW$35$$35$k_$35$$35$841 () Str)
(declare-fun lit$36$src$47$RefinementHelper.hs () Str)
(declare-fun lq_tmp$36$x$35$$35$849 () Int)
(declare-fun GHC.Real.fromRational () Int)
(declare-fun GHC.Real.recip () Int)
(declare-fun GHC.Num.abs () Int)
(declare-fun GHC.Conc.Sync.ThreadId () Int)
(declare-fun GHC.IO.Exception.IOError () Int)
(declare-fun lq_anf$36$$35$$35$7205759403792815478$35$$35$d5GS () Int)
(declare-fun lq_tmp$36$x$35$$35$534 () Int)
(declare-fun lq_anf$36$$35$$35$7205759403792815460$35$$35$d5GA () Int)
(declare-fun GHC.Float.$42$$42$ () Int)
(declare-fun x_Tuple22 () Int)
(declare-fun lq_karg$36$lq_anf$36$$35$$35$7205759403792815478$35$$35$d5GS$35$$35$k_$35$$35$841 () Int)
(declare-fun Data.Semigroup.Internal.Alt () Int)
(declare-fun lq_anf$36$$35$$35$7205759403792815466$35$$35$d5GG () Str)
(declare-fun GHC.Real.$47$ () Int)
(declare-fun Data.Typeable.Internal.$36$WSomeTypeRep () Int)
(declare-fun GHC.Base.$36$ () Int)
(declare-fun fldList () Int)
(declare-fun GHC.Weak.Weak () Int)
(declare-fun GHC.Types.I$35$ () Int)
(declare-fun lq_karg$36$lq_anf$36$$35$$35$7205759403792815479$35$$35$d5GT$35$$35$k_$35$$35$841 () Bool)
(declare-fun lq_anf$36$$35$$35$7205759403792815467$35$$35$d5GH () Int)
(declare-fun lq_anf$36$$35$$35$7205759403792815480$35$$35$d5GU () Bool)
(declare-fun lq_anf$36$$35$$35$7205759403792815463$35$$35$d5GD () Int)
(declare-fun GHC.IO.Handle.Types.$36$WFileHandle () Int)
(declare-fun fix$36$$36$dIP_a1xu () Int)
(declare-fun GHC.Num.negate () Int)
(declare-fun GHC.IO.Exception.ExitFailure () Int)
(declare-fun GHC.Num.Integer.IN () Int)
(declare-fun GHC.IO.Handle.Types.DuplexHandle () Int)
(declare-fun GHC.Enum.C$58$Bounded () Int)
(declare-fun lqdc$35$$35$$36$select$35$$35$GHC.Maybe.Just$35$$35$1 () Int)
(declare-fun GHC.Float.atanh () Int)
(declare-fun lq_anf$36$$35$$35$7205759403792815476$35$$35$d5GQ () Int)
(declare-fun lq_anf$36$$35$$35$7205759403792815472$35$$35$d5GM () Int)
(declare-fun GHC.IO.Handle.Types.$36$WDuplexHandle () Int)
(declare-fun lq_karg$36$VV$35$$35$840$35$$35$k_$35$$35$841 () Int)
(declare-fun isPrime () Int)
(declare-fun GHC.IO.IOMode.ReadMode () Int)
(declare-fun GHC.Types.$58$ () Int)
(declare-fun lq_anf$36$$35$$35$7205759403792815481$35$$35$d5GV () Str)
(declare-fun Data.Either.Left () Int)
(declare-fun Data.Semigroup.Internal.Sum () Int)
(declare-fun GHC.Float.atan () Int)
(declare-fun isLeft () Int)
(declare-fun GHC.Float.log () Int)
(declare-fun lq_anf$36$$35$$35$7205759403792815451$35$$35$d5Gr () Str)
(declare-fun GHC.Types.Module () Int)
(declare-fun GHC.OverloadedLabels.C$58$IsLabel () Int)
(declare-fun lit$36$Invalid () Str)
(declare-fun totalityError () Int)
(declare-fun GHC.Num.fromInteger () Int)
(declare-fun lq_tmp$36$x$35$$35$573 () Int)
(declare-fun GHC.Real.fromIntegral () Int)
(declare-fun GHC.Float.asin () Int)
(declare-fun lq_tmp$36$x$35$$35$498 () Int)
(declare-fun lq_anf$36$$35$$35$7205759403792815465$35$$35$d5GF () Int)
(declare-fun GHC.Classes.$61$$61$ () Int)
(declare-fun Data.ByteString.Internal.Type.$36$WBS () Int)
(declare-fun lq_tmp$36$x$35$$35$499 () Int)
(declare-fun GHC.Types.TrNameD () Int)
(declare-fun lq_anf$36$$35$$35$7205759403792815458$35$$35$d5Gy () Int)
(declare-fun VV$35$$35$F$35$$35$9 () Int)
(declare-fun GHC.Types.EQ () Int)
(declare-fun lq_anf$36$$35$$35$7205759403792815456$35$$35$d5Gw () Int)
(declare-fun Data.ByteString.Lazy.Internal.$36$WChunk () Int)
(declare-fun GHC.Float.tanh () Int)
(declare-fun Data.Semigroup.Internal.Dual () Int)
(declare-fun VV$35$$35$F$35$$35$8 () Int)
(declare-fun Data.Complex.$58$$43$ () Int)
(declare-fun System.Posix.Types.Fd () Int)
(declare-fun lq_anf$36$$35$$35$7205759403792815462$35$$35$d5GC () Int)
(declare-fun GHC.TypeNats.C$58$KnownNat () Int)
(declare-fun Data.Typeable.Internal.SomeTypeRep () Int)
(declare-fun lit$36$RefinementHelper () Str)
(declare-fun GHC.Maybe.Nothing () Int)
(declare-fun lq_anf$36$$35$$35$7205759403792815453$35$$35$d5Gt () Int)
(declare-fun lq_anf$36$$35$$35$7205759403792815471$35$$35$d5GL () Int)
(declare-fun GHC.Types.LT () Int)
(declare-fun VV$35$$35$F$35$$35$15 () Int)
(declare-fun Data.Tuple.snd () Int)
(declare-fun Control.Concurrent.Chan.$36$WChan () Int)
(declare-fun ds_d5FW () Int)
(declare-fun GHC.Types.False () Bool)
(declare-fun maximum () Int)
(declare-fun GHC.Stack.Types.SrcLoc () Int)
(declare-fun lq_karg$36$lq_anf$36$$35$$35$7205759403792815480$35$$35$d5GU$35$$35$k_$35$$35$803 () Bool)
(declare-fun GHC.Word.W8$35$ () Int)
(declare-fun lq_tmp$36$x$35$$35$749 () Int)
(declare-fun GHC.Base.$58$$124$ () Int)
(declare-fun GHC.Types.GT () Int)
(declare-fun GHC.Real.mod () Int)
(declare-fun Data.Type.Equality.Refl () Int)
(declare-fun VV$35$$35$F$35$$35$14 () Int)
(declare-fun GHC.Classes.not () Int)
(declare-fun lq_karg$36$lq_anf$36$$35$$35$7205759403792815478$35$$35$d5GS$35$$35$k_$35$$35$803 () Int)
(declare-fun Control.Monad.Trans.Except.ExceptT () Int)
(declare-fun lq_karg$36$lq_anf$36$$35$$35$7205759403792815477$35$$35$d5GR$35$$35$k_$35$$35$841 () Int)
(declare-fun ds_d5FV () Int)
(declare-fun Data.Text.Internal.Text () Int)
(declare-fun lq_tmp$36$x$35$$35$837 () Int)
(declare-fun lq_anf$36$$35$$35$7205759403792815447$35$$35$d5Gn () Str)
(declare-fun GHC.Tuple.$40$$41$ () Int)
(declare-fun GHC.Types.Eq$35$ () Int)
(declare-fun lq_tmp$36$x$35$$35$618 () Int)
(declare-fun GHC.Generics.M1 () Int)
(declare-fun GHC.Float.cosh () Int)
(declare-fun Protolude.Panic.FatalError () Int)
(declare-fun RefinementHelper.die () Int)
(declare-fun liquid_internal_this () Int)
(declare-fun snd () Int)
(declare-fun GHC.Err.error () Int)
(declare-fun VV$35$$35$F$35$$35$16 () Str)
(declare-fun Data.Semigroup.Internal.Product () Int)
(declare-fun GHC.Classes.$36$fOrdInt () Int)
(declare-fun GHC.Float.tan () Int)
(declare-fun GHC.Float.acos () Int)
(declare-fun len () Int)
(declare-fun GHC.Classes.$60$ () Int)
(declare-fun GHC.Num.Integer.IP () Int)
(declare-fun Data.Typeable.Internal.C$58$Typeable () Int)
(declare-fun GHC.Classes.$62$$61$ () Int)
(declare-fun addrLen () Int)
(declare-fun cast_as_int () Int)
(declare-fun Data.Monoid.First () Int)
(declare-fun GHC.Maybe.Just () Int)
(declare-fun lq_anf$36$$35$$35$7205759403792815461$35$$35$d5GB () Int)
(declare-fun Data.ByteString.Lazy.Internal.Empty () Int)
(declare-fun GHC.IO.IOMode.ReadWriteMode () Int)
(declare-fun GHC.ExecutionStack.Internal.Location () Int)
(declare-fun GHC.Real.divMod () Int)
(declare-fun lq_karg$36$VV$35$$35$636$35$$35$k_$35$$35$637 () Int)
(declare-fun n$35$$35$a1wt () Int)
(declare-fun GHC.Classes.$62$ () Int)
(declare-fun cast_as () Int)
(declare-fun VV$35$$35$F$35$$35$13 () Int)
(declare-fun Data.Monoid.Ap () Int)
(declare-fun GHC.Float.pi () Int)
(declare-fun lq_anf$36$$35$$35$7205759403792815452$35$$35$d5Gs () Str)
(declare-fun lq_anf$36$$35$$35$7205759403792815470$35$$35$d5GK () Int)
(declare-fun GHC.Float.acosh () Int)
(declare-fun lq_anf$36$$35$$35$7205759403792815454$35$$35$d5Gu () Int)
(declare-fun Data.Functor.Const.Const () Int)
(declare-fun GHC.Classes.min () Int)
(declare-fun GHC.Num.Integer.IS () Int)
(declare-fun VV$35$$35$F$35$$35$12 () Int)
(declare-fun GHC.Classes.$38$$38$ () Int)
(declare-fun GHC.Float.sqrt () Int)
(declare-fun lq_anf$36$$35$$35$7205759403792815468$35$$35$d5GI () Int)
(declare-fun GHC.Float.logBase () Int)
(declare-fun lq_tmp$36$x$35$$35$831 () Int)
(declare-fun GHC.Float.sinh () Int)
(declare-fun lq_karg$36$lq_anf$36$$35$$35$7205759403792815479$35$$35$d5GT$35$$35$k_$35$$35$803 () Bool)
(declare-fun Data.Functor.Identity.Identity () Int)
(declare-fun GHC.Real.quotRem () Int)
(declare-fun lq_karg$36$lq_anf$36$$35$$35$7205759403792815481$35$$35$d5GV$35$$35$k_$35$$35$841 () Str)
(declare-fun GHC.Classes.max () Int)
(declare-fun papp3 () Int)
(declare-fun lq_anf$36$$35$$35$7205759403792815473$35$$35$d5GN () Int)
(declare-fun lq_anf$36$$35$$35$7205759403792815477$35$$35$d5GR () Int)
(declare-fun GHC.Real.div () Int)
(declare-fun lq_anf$36$$35$$35$7205759403792815445$35$$35$d5Gl () Str)
(declare-fun GHC.Real.$94$ () Int)
(declare-fun GHC.Types.TrNameS () Int)
(declare-fun fst () Int)
(declare-fun GHC.Exception.Type.SomeException () Int)
(declare-fun Control.Concurrent.Chan.Chan () Int)
(declare-fun Control.Concurrent.QSem.QSem () Int)
(declare-fun GHC.IO.IOMode.WriteMode () Int)
(declare-fun lit$36$error () Str)
(declare-fun papp2 () Int)
(declare-fun GHC.TypeLits.C$58$KnownSymbol () Int)
(declare-fun GHC.Num.$45$ () Int)
(declare-fun GHC.IO.IOMode.AppendMode () Int)
(declare-fun GHC.ExecutionStack.Internal.SrcLoc () Int)
(declare-fun GHC.Types.C$35$ () Int)
(declare-fun lq_karg$36$n$35$$35$a1wt$35$$35$k_$35$$35$803 () Int)
(declare-fun Data.Complex.$36$W$58$$43$ () Int)
(declare-fun papp1 () Int)
(declare-fun Data.Tuple.fst () Int)
(declare-fun GHC.IO.MaskedUninterruptible () Int)
(declare-fun lit$36$grfn$45$1.0.0.0$45$inplace () Str)
(declare-fun Data.Text.Internal.Lazy.$36$WChunk () Int)
(declare-fun GHC.Float.asinh () Int)
(declare-fun GHC.Generics.Comp1 () Int)
(declare-fun GHC.IO.MaskedInterruptible () Int)
(declare-fun GHC.Classes.$47$$61$ () Int)
(declare-fun Data.Monoid.Last () Int)
(declare-fun GHC.Float.cos () Int)
(declare-fun GHC.Float.exp () Int)
(declare-fun papp7 () Int)
(declare-fun GHC.Num.$36$fNumInt () Int)
(declare-fun GHC.Types.$91$$93$ () Int)
(declare-fun lq_anf$36$$35$$35$7205759403792815459$35$$35$d5Gz () Int)
(declare-fun RefinementHelper.$36$trModule () Int)
(declare-fun GHC.Real.toInteger () Int)
(declare-fun lq_tmp$36$x$35$$35$793 () Int)
(declare-fun lq_tmp$36$x$35$$35$850 () Int)
(declare-fun GHC.Real.$58$$37$ () Int)
(declare-fun GHC.Stack.Types.EmptyCallStack () Int)
(declare-fun GHC.Real.rem () Int)
(declare-fun papp6 () Int)
(declare-fun Data.Text.Internal.Lazy.Chunk () Int)
(declare-fun Data.Text.Internal.Lazy.Empty () Int)
(declare-fun RefinementHelper.intsGte2 () Int)
(declare-fun GHC.Stack.Types.emptyCallStack () Int)
(declare-fun GHC.Classes.C$58$IP () Int)
(declare-fun Control.Applicative.ZipList () Int)
(declare-fun GHC.CString.unpackCString$35$ () Int)
(declare-fun lq_anf$36$$35$$35$7205759403792815474$35$$35$d5GO () Int)
(declare-fun lq_anf$36$$35$$35$7205759403792815450$35$$35$d5Gq () Str)
(declare-fun papp5 () Int)
(declare-fun lq_karg$36$lq_anf$36$$35$$35$7205759403792815480$35$$35$d5GU$35$$35$k_$35$$35$841 () Bool)
(declare-fun GHC.Num.$42$ () Int)
(declare-fun GHC.Classes.$60$$61$ () Int)
(declare-fun lq_anf$36$$35$$35$7205759403792815464$35$$35$d5GE () Str)
(declare-fun GHC.Word.W32$35$ () Int)
(declare-fun lq_karg$36$lq_anf$36$$35$$35$7205759403792815477$35$$35$d5GR$35$$35$k_$35$$35$803 () Int)
(declare-fun GHC.Classes.$124$$124$ () Int)
(declare-fun GHC.Tuple.$40$$44$$41$ () Int)
(declare-fun product () Int)
(declare-fun lq_anf$36$$35$$35$7205759403792815448$35$$35$d5Go () Str)
(declare-fun papp4 () Int)
(declare-fun Control.Concurrent.QSemN.QSemN () Int)
(declare-fun Data.Text.Encoding.Error.EncodeError () Int)
(declare-fun RefinementHelper.pow2 () Int)
(declare-fun GHC.Num.$43$ () Int)
(declare-fun Data.Semigroup.Internal.All () Int)
(declare-fun apply$35$$35$15 (Int (_ BitVec 32)) Int)
(declare-fun apply$35$$35$4 (Int Int) (_ BitVec 64))
(declare-fun apply$35$$35$20 (Int (_ BitVec 64)) Int)
(declare-fun apply$35$$35$3 (Int Int) (_ BitVec 32))
(declare-fun apply$35$$35$18 (Int (_ BitVec 32)) (_ BitVec 32))
(declare-fun apply$35$$35$24 (Int (_ BitVec 64)) (_ BitVec 64))
(declare-fun apply$35$$35$19 (Int (_ BitVec 32)) (_ BitVec 64))
(declare-fun apply$35$$35$6 (Int Bool) Bool)
(declare-fun apply$35$$35$23 (Int (_ BitVec 64)) (_ BitVec 32))
(declare-fun apply$35$$35$0 (Int Int) Int)
(declare-fun apply$35$$35$12 (Int Str) Str)
(declare-fun apply$35$$35$7 (Int Bool) Str)
(declare-fun apply$35$$35$11 (Int Str) Bool)
(declare-fun apply$35$$35$17 (Int (_ BitVec 32)) Str)
(declare-fun apply$35$$35$13 (Int Str) (_ BitVec 32))
(declare-fun apply$35$$35$22 (Int (_ BitVec 64)) Str)
(declare-fun apply$35$$35$14 (Int Str) (_ BitVec 64))
(declare-fun apply$35$$35$16 (Int (_ BitVec 32)) Bool)
(declare-fun apply$35$$35$8 (Int Bool) (_ BitVec 32))
(declare-fun apply$35$$35$21 (Int (_ BitVec 64)) Bool)
(declare-fun apply$35$$35$9 (Int Bool) (_ BitVec 64))
(declare-fun apply$35$$35$5 (Int Bool) Int)
(declare-fun apply$35$$35$1 (Int Int) Bool)
(declare-fun apply$35$$35$2 (Int Int) Str)
(declare-fun apply$35$$35$10 (Int Str) Int)
(declare-fun coerce$35$$35$15 ((_ BitVec 32)) Int)
(declare-fun coerce$35$$35$4 (Int) (_ BitVec 64))
(declare-fun coerce$35$$35$20 ((_ BitVec 64)) Int)
(declare-fun coerce$35$$35$3 (Int) (_ BitVec 32))
(declare-fun coerce$35$$35$18 ((_ BitVec 32)) (_ BitVec 32))
(declare-fun coerce$35$$35$24 ((_ BitVec 64)) (_ BitVec 64))
(declare-fun coerce$35$$35$19 ((_ BitVec 32)) (_ BitVec 64))
(declare-fun coerce$35$$35$6 (Bool) Bool)
(declare-fun coerce$35$$35$23 ((_ BitVec 64)) (_ BitVec 32))
(declare-fun coerce$35$$35$0 (Int) Int)
(declare-fun coerce$35$$35$12 (Str) Str)
(declare-fun coerce$35$$35$7 (Bool) Str)
(declare-fun coerce$35$$35$11 (Str) Bool)
(declare-fun coerce$35$$35$17 ((_ BitVec 32)) Str)
(declare-fun coerce$35$$35$13 (Str) (_ BitVec 32))
(declare-fun coerce$35$$35$22 ((_ BitVec 64)) Str)
(declare-fun coerce$35$$35$14 (Str) (_ BitVec 64))
(declare-fun coerce$35$$35$16 ((_ BitVec 32)) Bool)
(declare-fun coerce$35$$35$8 (Bool) (_ BitVec 32))
(declare-fun coerce$35$$35$21 ((_ BitVec 64)) Bool)
(declare-fun coerce$35$$35$9 (Bool) (_ BitVec 64))
(declare-fun coerce$35$$35$5 (Bool) Int)
(declare-fun coerce$35$$35$1 (Int) Bool)
(declare-fun coerce$35$$35$2 (Int) Str)
(declare-fun coerce$35$$35$10 (Str) Int)
(declare-fun smt_lambda$35$$35$15 ((_ BitVec 32) Int) Int)
(declare-fun smt_lambda$35$$35$4 (Int (_ BitVec 64)) Int)
(declare-fun smt_lambda$35$$35$20 ((_ BitVec 64) Int) Int)
(declare-fun smt_lambda$35$$35$3 (Int (_ BitVec 32)) Int)
(declare-fun smt_lambda$35$$35$18 ((_ BitVec 32) (_ BitVec 32)) Int)
(declare-fun smt_lambda$35$$35$24 ((_ BitVec 64) (_ BitVec 64)) Int)
(declare-fun smt_lambda$35$$35$19 ((_ BitVec 32) (_ BitVec 64)) Int)
(declare-fun smt_lambda$35$$35$6 (Bool Bool) Int)
(declare-fun smt_lambda$35$$35$23 ((_ BitVec 64) (_ BitVec 32)) Int)
(declare-fun smt_lambda$35$$35$0 (Int Int) Int)
(declare-fun smt_lambda$35$$35$12 (Str Str) Int)
(declare-fun smt_lambda$35$$35$7 (Bool Str) Int)
(declare-fun smt_lambda$35$$35$11 (Str Bool) Int)
(declare-fun smt_lambda$35$$35$17 ((_ BitVec 32) Str) Int)
(declare-fun smt_lambda$35$$35$13 (Str (_ BitVec 32)) Int)
(declare-fun smt_lambda$35$$35$22 ((_ BitVec 64) Str) Int)
(declare-fun smt_lambda$35$$35$14 (Str (_ BitVec 64)) Int)
(declare-fun smt_lambda$35$$35$16 ((_ BitVec 32) Bool) Int)
(declare-fun smt_lambda$35$$35$8 (Bool (_ BitVec 32)) Int)
(declare-fun smt_lambda$35$$35$21 ((_ BitVec 64) Bool) Int)
(declare-fun smt_lambda$35$$35$9 (Bool (_ BitVec 64)) Int)
(declare-fun smt_lambda$35$$35$5 (Bool Int) Int)
(declare-fun smt_lambda$35$$35$1 (Int Bool) Int)
(declare-fun smt_lambda$35$$35$2 (Int Str) Int)
(declare-fun smt_lambda$35$$35$10 (Str Int) Int)
(declare-fun lam_arg$35$$35$1$35$$35$15 () (_ BitVec 32))
(declare-fun lam_arg$35$$35$2$35$$35$15 () (_ BitVec 32))
(declare-fun lam_arg$35$$35$3$35$$35$15 () (_ BitVec 32))
(declare-fun lam_arg$35$$35$4$35$$35$15 () (_ BitVec 32))
(declare-fun lam_arg$35$$35$5$35$$35$15 () (_ BitVec 32))
(declare-fun lam_arg$35$$35$6$35$$35$15 () (_ BitVec 32))
(declare-fun lam_arg$35$$35$7$35$$35$15 () (_ BitVec 32))
(declare-fun lam_arg$35$$35$1$35$$35$20 () (_ BitVec 64))
(declare-fun lam_arg$35$$35$2$35$$35$20 () (_ BitVec 64))
(declare-fun lam_arg$35$$35$3$35$$35$20 () (_ BitVec 64))
(declare-fun lam_arg$35$$35$4$35$$35$20 () (_ BitVec 64))
(declare-fun lam_arg$35$$35$5$35$$35$20 () (_ BitVec 64))
(declare-fun lam_arg$35$$35$6$35$$35$20 () (_ BitVec 64))
(declare-fun lam_arg$35$$35$7$35$$35$20 () (_ BitVec 64))
(declare-fun lam_arg$35$$35$1$35$$35$0 () Int)
(declare-fun lam_arg$35$$35$2$35$$35$0 () Int)
(declare-fun lam_arg$35$$35$3$35$$35$0 () Int)
(declare-fun lam_arg$35$$35$4$35$$35$0 () Int)
(declare-fun lam_arg$35$$35$5$35$$35$0 () Int)
(declare-fun lam_arg$35$$35$6$35$$35$0 () Int)
(declare-fun lam_arg$35$$35$7$35$$35$0 () Int)
(declare-fun lam_arg$35$$35$1$35$$35$5 () Bool)
(declare-fun lam_arg$35$$35$2$35$$35$5 () Bool)
(declare-fun lam_arg$35$$35$3$35$$35$5 () Bool)
(declare-fun lam_arg$35$$35$4$35$$35$5 () Bool)
(declare-fun lam_arg$35$$35$5$35$$35$5 () Bool)
(declare-fun lam_arg$35$$35$6$35$$35$5 () Bool)
(declare-fun lam_arg$35$$35$7$35$$35$5 () Bool)
(declare-fun lam_arg$35$$35$1$35$$35$10 () Str)
(declare-fun lam_arg$35$$35$2$35$$35$10 () Str)
(declare-fun lam_arg$35$$35$3$35$$35$10 () Str)
(declare-fun lam_arg$35$$35$4$35$$35$10 () Str)
(declare-fun lam_arg$35$$35$5$35$$35$10 () Str)
(declare-fun lam_arg$35$$35$6$35$$35$10 () Str)
(declare-fun lam_arg$35$$35$7$35$$35$10 () Str)
(assert (distinct GHC.IO.MaskedInterruptible GHC.IO.MaskedUninterruptible GHC.IO.Unmasked))

(assert (distinct lit$36$grfn$45$1.0.0.0$45$inplace lit$36$error lit$36$RefinementHelper lit$36$Invalid lit$36$src$47$RefinementHelper.hs))


(assert (distinct GHC.Types.False GHC.Types.True))
(assert (distinct GHC.IO.IOMode.AppendMode GHC.IO.IOMode.WriteMode GHC.IO.IOMode.ReadWriteMode GHC.IO.IOMode.ReadMode))


(assert (distinct GHC.Types.GT GHC.Types.LT GHC.Types.EQ))
(assert (= (strLen lit$36$src$47$RefinementHelper.hs) 23))
(assert (= (strLen lit$36$Invalid) 7))
(assert (= (strLen lit$36$RefinementHelper) 16))
(assert (= (strLen lit$36$error) 5))
(assert (= (strLen lit$36$grfn$45$1.0.0.0$45$inplace) 20))
(push 1)
(define-fun b$36$$35$$35$96 () Bool (and (= (apply$35$$35$10 (as len Int) lq_anf$36$$35$$35$7205759403792815446$35$$35$d5Gm) (strLen lq_anf$36$$35$$35$7205759403792815445$35$$35$d5Gl)) (>= (apply$35$$35$10 (as len Int) lq_anf$36$$35$$35$7205759403792815446$35$$35$d5Gm) 0) (= lq_anf$36$$35$$35$7205759403792815446$35$$35$d5Gm lq_anf$36$$35$$35$7205759403792815445$35$$35$d5Gl)))
(define-fun b$36$$35$$35$128 () Bool (= lq_anf$36$$35$$35$7205759403792815469$35$$35$d5GJ ds_d5FW))
(define-fun b$36$$35$$35$97 () Bool (= lq_anf$36$$35$$35$7205759403792815447$35$$35$d5Gn lit$36$grfn$45$1.0.0.0$45$inplace))
(define-fun b$36$$35$$35$129 () Bool (and (= lq_anf$36$$35$$35$7205759403792815469$35$$35$d5GJ ds_d5FW) (not (= lq_anf$36$$35$$35$7205759403792815469$35$$35$d5GJ 0))))
(define-fun b$36$$35$$35$98 () Bool (and (= (apply$35$$35$10 (as len Int) lq_anf$36$$35$$35$7205759403792815448$35$$35$d5Go) (strLen lq_anf$36$$35$$35$7205759403792815447$35$$35$d5Gn)) (>= (apply$35$$35$10 (as len Int) lq_anf$36$$35$$35$7205759403792815448$35$$35$d5Go) 0) (= lq_anf$36$$35$$35$7205759403792815448$35$$35$d5Go lq_anf$36$$35$$35$7205759403792815447$35$$35$d5Gn)))
(define-fun b$36$$35$$35$130 () Bool (= lq_anf$36$$35$$35$7205759403792815470$35$$35$d5GK 2))
(define-fun b$36$$35$$35$67 () Bool (not GHC.Types.False))
(define-fun b$36$$35$$35$99 () Bool (= lq_anf$36$$35$$35$7205759403792815449$35$$35$d5Gp lit$36$RefinementHelper))
(define-fun b$36$$35$$35$131 () Bool (= lq_anf$36$$35$$35$7205759403792815471$35$$35$d5GL lq_anf$36$$35$$35$7205759403792815470$35$$35$d5GK))
(define-fun b$36$$35$$35$100 () Bool (and (= (apply$35$$35$10 (as len Int) lq_anf$36$$35$$35$7205759403792815450$35$$35$d5Gq) (strLen lq_anf$36$$35$$35$7205759403792815449$35$$35$d5Gp)) (>= (apply$35$$35$10 (as len Int) lq_anf$36$$35$$35$7205759403792815450$35$$35$d5Gq) 0) (= lq_anf$36$$35$$35$7205759403792815450$35$$35$d5Gq lq_anf$36$$35$$35$7205759403792815449$35$$35$d5Gp)))
(define-fun b$36$$35$$35$132 () Bool (= lq_anf$36$$35$$35$7205759403792815472$35$$35$d5GM 1))
(define-fun b$36$$35$$35$101 () Bool (= lq_anf$36$$35$$35$7205759403792815451$35$$35$d5Gr lit$36$src$47$RefinementHelper.hs))
(define-fun b$36$$35$$35$133 () Bool (= lq_anf$36$$35$$35$7205759403792815473$35$$35$d5GN lq_anf$36$$35$$35$7205759403792815472$35$$35$d5GM))
(define-fun b$36$$35$$35$102 () Bool (and (= (apply$35$$35$10 (as len Int) lq_anf$36$$35$$35$7205759403792815452$35$$35$d5Gs) (strLen lq_anf$36$$35$$35$7205759403792815451$35$$35$d5Gr)) (>= (apply$35$$35$10 (as len Int) lq_anf$36$$35$$35$7205759403792815452$35$$35$d5Gs) 0) (= lq_anf$36$$35$$35$7205759403792815452$35$$35$d5Gs lq_anf$36$$35$$35$7205759403792815451$35$$35$d5Gr)))
(define-fun b$36$$35$$35$134 () Bool (= lq_anf$36$$35$$35$7205759403792815474$35$$35$d5GO (- ds_d5FV lq_anf$36$$35$$35$7205759403792815473$35$$35$d5GN)))
(define-fun b$36$$35$$35$103 () Bool (= lq_anf$36$$35$$35$7205759403792815453$35$$35$d5Gt 52))
(define-fun b$36$$35$$35$135 () Bool (and (= lq_anf$36$$35$$35$7205759403792815475$35$$35$d5GP (apply$35$$35$0 RefinementHelper.pow2 lq_anf$36$$35$$35$7205759403792815474$35$$35$d5GO)) (= lq_anf$36$$35$$35$7205759403792815475$35$$35$d5GP (ite (= 0 lq_anf$36$$35$$35$7205759403792815474$35$$35$d5GO) 1 (Z3_OP_MUL 2 (apply$35$$35$0 RefinementHelper.pow2 (- lq_anf$36$$35$$35$7205759403792815474$35$$35$d5GO 1))))) (>= lq_anf$36$$35$$35$7205759403792815475$35$$35$d5GP 0)))
(define-fun b$36$$35$$35$104 () Bool (= lq_anf$36$$35$$35$7205759403792815454$35$$35$d5Gu lq_anf$36$$35$$35$7205759403792815453$35$$35$d5Gt))
(define-fun b$36$$35$$35$136 () Bool (and (= lq_anf$36$$35$$35$7205759403792815469$35$$35$d5GJ 0) (= lq_anf$36$$35$$35$7205759403792815469$35$$35$d5GJ ds_d5FW)))
(define-fun b$36$$35$$35$105 () Bool (= lq_anf$36$$35$$35$7205759403792815455$35$$35$d5Gv 7))
(define-fun b$36$$35$$35$137 () Bool (= lq_anf$36$$35$$35$7205759403792815476$35$$35$d5GQ 1))
(define-fun b$36$$35$$35$106 () Bool (= lq_anf$36$$35$$35$7205759403792815456$35$$35$d5Gw lq_anf$36$$35$$35$7205759403792815455$35$$35$d5Gv))
(define-fun b$36$$35$$35$107 () Bool (= lq_anf$36$$35$$35$7205759403792815457$35$$35$d5Gx 52))
(define-fun b$36$$35$$35$139 () Bool (= lq_anf$36$$35$$35$7205759403792815477$35$$35$d5GR 2))
(define-fun b$36$$35$$35$171 () Bool (and (= VV$35$$35$F$35$$35$1 lq_tmp$36$x$35$$35$849) (<= 2 VV$35$$35$F$35$$35$1)))
(define-fun b$36$$35$$35$108 () Bool (= lq_anf$36$$35$$35$7205759403792815458$35$$35$d5Gy lq_anf$36$$35$$35$7205759403792815457$35$$35$d5Gx))
(define-fun b$36$$35$$35$140 () Bool (= lq_anf$36$$35$$35$7205759403792815478$35$$35$d5GS lq_anf$36$$35$$35$7205759403792815477$35$$35$d5GR))
(define-fun b$36$$35$$35$109 () Bool (= lq_anf$36$$35$$35$7205759403792815459$35$$35$d5Gz 12))
(define-fun b$36$$35$$35$141 () Bool (= lq_anf$36$$35$$35$7205759403792815479$35$$35$d5GT (< n$35$$35$a1wt lq_anf$36$$35$$35$7205759403792815478$35$$35$d5GS)))
(define-fun b$36$$35$$35$110 () Bool (= lq_anf$36$$35$$35$7205759403792815460$35$$35$d5GA lq_anf$36$$35$$35$7205759403792815459$35$$35$d5Gz))
(define-fun b$36$$35$$35$142 () Bool (and (= lq_anf$36$$35$$35$7205759403792815480$35$$35$d5GU (< n$35$$35$a1wt lq_anf$36$$35$$35$7205759403792815478$35$$35$d5GS)) (= lq_anf$36$$35$$35$7205759403792815480$35$$35$d5GU lq_anf$36$$35$$35$7205759403792815479$35$$35$d5GT)))
(define-fun b$36$$35$$35$143 () Bool (and (= lq_anf$36$$35$$35$7205759403792815480$35$$35$d5GU (< n$35$$35$a1wt lq_anf$36$$35$$35$7205759403792815478$35$$35$d5GS)) (= lq_anf$36$$35$$35$7205759403792815480$35$$35$d5GU lq_anf$36$$35$$35$7205759403792815479$35$$35$d5GT)))
(define-fun b$36$$35$$35$144 () Bool (and (not lq_anf$36$$35$$35$7205759403792815480$35$$35$d5GU) (= lq_anf$36$$35$$35$7205759403792815480$35$$35$d5GU (< n$35$$35$a1wt lq_anf$36$$35$$35$7205759403792815478$35$$35$d5GS)) (= lq_anf$36$$35$$35$7205759403792815480$35$$35$d5GU lq_anf$36$$35$$35$7205759403792815479$35$$35$d5GT)))
(define-fun b$36$$35$$35$176 () Bool (= VV$35$$35$F$35$$35$9 n$35$$35$a1wt))
(define-fun b$36$$35$$35$113 () Bool (and (= (apply$35$$35$2 (as fst Int) lq_anf$36$$35$$35$7205759403792815462$35$$35$d5GC) lq_anf$36$$35$$35$7205759403792815446$35$$35$d5Gm) (= (apply$35$$35$0 (as snd Int) lq_anf$36$$35$$35$7205759403792815462$35$$35$d5GC) lq_anf$36$$35$$35$7205759403792815461$35$$35$d5GB) (= (apply$35$$35$2 (as x_Tuple21 Int) lq_anf$36$$35$$35$7205759403792815462$35$$35$d5GC) lq_anf$36$$35$$35$7205759403792815446$35$$35$d5Gm) (= (apply$35$$35$0 (as x_Tuple22 Int) lq_anf$36$$35$$35$7205759403792815462$35$$35$d5GC) lq_anf$36$$35$$35$7205759403792815461$35$$35$d5GB)))
(define-fun b$36$$35$$35$145 () Bool (and (= lq_anf$36$$35$$35$7205759403792815480$35$$35$d5GU (< n$35$$35$a1wt lq_anf$36$$35$$35$7205759403792815478$35$$35$d5GS)) (= lq_anf$36$$35$$35$7205759403792815480$35$$35$d5GU lq_anf$36$$35$$35$7205759403792815479$35$$35$d5GT)))
(define-fun b$36$$35$$35$177 () Bool (= VV$35$$35$F$35$$35$12 lq_anf$36$$35$$35$7205759403792815476$35$$35$d5GQ))
(define-fun b$36$$35$$35$146 () Bool (and lq_anf$36$$35$$35$7205759403792815480$35$$35$d5GU (= lq_anf$36$$35$$35$7205759403792815480$35$$35$d5GU (< n$35$$35$a1wt lq_anf$36$$35$$35$7205759403792815478$35$$35$d5GS)) (= lq_anf$36$$35$$35$7205759403792815480$35$$35$d5GU lq_anf$36$$35$$35$7205759403792815479$35$$35$d5GT)))
(define-fun b$36$$35$$35$178 () Bool (= VV$35$$35$F$35$$35$13 (Z3_OP_MUL lq_anf$36$$35$$35$7205759403792815471$35$$35$d5GL lq_anf$36$$35$$35$7205759403792815475$35$$35$d5GP)))
(define-fun b$36$$35$$35$147 () Bool (= lq_anf$36$$35$$35$7205759403792815481$35$$35$d5GV lit$36$Invalid))
(define-fun b$36$$35$$35$179 () Bool (and (= VV$35$$35$F$35$$35$14 lq_anf$36$$35$$35$7205759403792815474$35$$35$d5GO) (= VV$35$$35$F$35$$35$14 (- ds_d5FV lq_anf$36$$35$$35$7205759403792815473$35$$35$d5GN))))
(define-fun b$36$$35$$35$148 () Bool (and (= (apply$35$$35$10 (as len Int) lq_anf$36$$35$$35$7205759403792815482$35$$35$d5GW) (strLen lq_anf$36$$35$$35$7205759403792815481$35$$35$d5GV)) (>= (apply$35$$35$10 (as len Int) lq_anf$36$$35$$35$7205759403792815482$35$$35$d5GW) 0) (= lq_anf$36$$35$$35$7205759403792815482$35$$35$d5GW lq_anf$36$$35$$35$7205759403792815481$35$$35$d5GV)))
(define-fun b$36$$35$$35$85 () Bool GHC.Types.True)
(define-fun b$36$$35$$35$117 () Bool (= lq_anf$36$$35$$35$7205759403792815464$35$$35$d5GE lit$36$grfn$45$1.0.0.0$45$inplace))
(define-fun b$36$$35$$35$181 () Bool false)
(define-fun b$36$$35$$35$119 () Bool (= lq_anf$36$$35$$35$7205759403792815466$35$$35$d5GG lit$36$RefinementHelper))
(define-fun b$36$$35$$35$123 () Bool (>= ds_d5FV 0))
(define-fun b$36$$35$$35$124 () Bool (and (= lq_anf$36$$35$$35$7205759403792815468$35$$35$d5GI ds_d5FV) (>= lq_anf$36$$35$$35$7205759403792815468$35$$35$d5GI 0)))
(define-fun b$36$$35$$35$125 () Bool (and (= lq_anf$36$$35$$35$7205759403792815468$35$$35$d5GI ds_d5FV) (>= lq_anf$36$$35$$35$7205759403792815468$35$$35$d5GI 0)))
(define-fun b$36$$35$$35$95 () Bool (= lq_anf$36$$35$$35$7205759403792815445$35$$35$d5Gl lit$36$error))
(define-fun b$36$$35$$35$127 () Bool (and (= lq_anf$36$$35$$35$7205759403792815468$35$$35$d5GI ds_d5FV) (= lq_anf$36$$35$$35$7205759403792815468$35$$35$d5GI ds_d5FW) (= lq_anf$36$$35$$35$7205759403792815468$35$$35$d5GI ds_d5FW) (>= lq_anf$36$$35$$35$7205759403792815468$35$$35$d5GI 0)))
(push 1)
(assert (and true b$36$$35$$35$67 b$36$$35$$35$85 b$36$$35$$35$117 b$36$$35$$35$119))
(push 1)
(assert (not (= 0 1)))
(check-sat)
; SMT Says: Sat
(pop 1)
(pop 1)
(push 1)
(push 1)
(assert (and true b$36$$35$$35$67 b$36$$35$$35$171 b$36$$35$$35$85))
(push 1)
(assert (not (<= 2 VV$35$$35$F$35$$35$1)))
(check-sat)
; SMT Says: Unsat
(pop 1)
(pop 1)
(push 1)
(assert (and false b$36$$35$$35$67 b$36$$35$$35$139 b$36$$35$$35$140 b$36$$35$$35$141 b$36$$35$$35$142 b$36$$35$$35$145 b$36$$35$$35$146 b$36$$35$$35$147 b$36$$35$$35$148 b$36$$35$$35$85))
(push 1)
(assert (not (= VV$35$$35$F$35$$35$2 n$35$$35$a1wt)))
(check-sat)
; SMT Says: Unsat
(pop 1)
(pop 1)
(push 1)
(assert (and false b$36$$35$$35$67 b$36$$35$$35$139 b$36$$35$$35$140 b$36$$35$$35$141 b$36$$35$$35$142 b$36$$35$$35$145 b$36$$35$$35$146 b$36$$35$$35$147 b$36$$35$$35$148 b$36$$35$$35$85))
(push 1)
(assert (not (<= 2 VV$35$$35$F$35$$35$3)))
(check-sat)
; SMT Says: Unsat
(pop 1)
(pop 1)
(push 1)
(assert (and (exists ((lq_karg$36$VV$35$$35$802$35$$35$k_$35$$35$803 Int) (lq_karg$36$lq_anf$36$$35$$35$7205759403792815480$35$$35$d5GU$35$$35$k_$35$$35$803 Bool) (lq_karg$36$lq_anf$36$$35$$35$7205759403792815478$35$$35$d5GS$35$$35$k_$35$$35$803 Int) (lq_karg$36$lq_anf$36$$35$$35$7205759403792815479$35$$35$d5GT$35$$35$k_$35$$35$803 Bool) (lq_karg$36$n$35$$35$a1wt$35$$35$k_$35$$35$803 Int) (lq_karg$36$lq_anf$36$$35$$35$7205759403792815477$35$$35$d5GR$35$$35$k_$35$$35$803 Int)) (and (= lq_karg$36$VV$35$$35$802$35$$35$k_$35$$35$803 VV$35$$35$F$35$$35$7) (= lq_karg$36$lq_anf$36$$35$$35$7205759403792815477$35$$35$d5GR$35$$35$k_$35$$35$803 lq_anf$36$$35$$35$7205759403792815477$35$$35$d5GR) (= lq_karg$36$lq_anf$36$$35$$35$7205759403792815478$35$$35$d5GS$35$$35$k_$35$$35$803 lq_anf$36$$35$$35$7205759403792815478$35$$35$d5GS) (= lq_karg$36$lq_anf$36$$35$$35$7205759403792815479$35$$35$d5GT$35$$35$k_$35$$35$803 lq_anf$36$$35$$35$7205759403792815479$35$$35$d5GT) (= lq_karg$36$lq_anf$36$$35$$35$7205759403792815480$35$$35$d5GU$35$$35$k_$35$$35$803 lq_anf$36$$35$$35$7205759403792815480$35$$35$d5GU) (= lq_karg$36$n$35$$35$a1wt$35$$35$k_$35$$35$803 n$35$$35$a1wt) (exists ((VV$35$$35$F$35$$35$9 Int)) (and (= VV$35$$35$F$35$$35$9 n$35$$35$a1wt) (= lq_karg$36$VV$35$$35$802$35$$35$k_$35$$35$803 VV$35$$35$F$35$$35$9) (= lq_karg$36$lq_anf$36$$35$$35$7205759403792815477$35$$35$d5GR$35$$35$k_$35$$35$803 lq_anf$36$$35$$35$7205759403792815477$35$$35$d5GR) (= lq_karg$36$lq_anf$36$$35$$35$7205759403792815478$35$$35$d5GS$35$$35$k_$35$$35$803 lq_anf$36$$35$$35$7205759403792815478$35$$35$d5GS) (= lq_karg$36$lq_anf$36$$35$$35$7205759403792815479$35$$35$d5GT$35$$35$k_$35$$35$803 lq_anf$36$$35$$35$7205759403792815479$35$$35$d5GT) (= lq_karg$36$lq_anf$36$$35$$35$7205759403792815480$35$$35$d5GU$35$$35$k_$35$$35$803 lq_anf$36$$35$$35$7205759403792815480$35$$35$d5GU) (= lq_karg$36$n$35$$35$a1wt$35$$35$k_$35$$35$803 n$35$$35$a1wt))))) b$36$$35$$35$67 b$36$$35$$35$139 b$36$$35$$35$140 b$36$$35$$35$141 b$36$$35$$35$142 b$36$$35$$35$143 b$36$$35$$35$144 b$36$$35$$35$85))
(push 1)
(assert (not (= VV$35$$35$F$35$$35$7 n$35$$35$a1wt)))
(check-sat)
; SMT Says: Unsat
(pop 1)
(pop 1)
(push 1)
(assert (and (exists ((lq_karg$36$VV$35$$35$802$35$$35$k_$35$$35$803 Int) (lq_karg$36$lq_anf$36$$35$$35$7205759403792815480$35$$35$d5GU$35$$35$k_$35$$35$803 Bool) (lq_karg$36$lq_anf$36$$35$$35$7205759403792815478$35$$35$d5GS$35$$35$k_$35$$35$803 Int) (lq_karg$36$lq_anf$36$$35$$35$7205759403792815479$35$$35$d5GT$35$$35$k_$35$$35$803 Bool) (lq_karg$36$n$35$$35$a1wt$35$$35$k_$35$$35$803 Int) (lq_karg$36$lq_anf$36$$35$$35$7205759403792815477$35$$35$d5GR$35$$35$k_$35$$35$803 Int)) (and (= lq_karg$36$VV$35$$35$802$35$$35$k_$35$$35$803 VV$35$$35$F$35$$35$8) (= lq_karg$36$lq_anf$36$$35$$35$7205759403792815477$35$$35$d5GR$35$$35$k_$35$$35$803 lq_anf$36$$35$$35$7205759403792815477$35$$35$d5GR) (= lq_karg$36$lq_anf$36$$35$$35$7205759403792815478$35$$35$d5GS$35$$35$k_$35$$35$803 lq_anf$36$$35$$35$7205759403792815478$35$$35$d5GS) (= lq_karg$36$lq_anf$36$$35$$35$7205759403792815479$35$$35$d5GT$35$$35$k_$35$$35$803 lq_anf$36$$35$$35$7205759403792815479$35$$35$d5GT) (= lq_karg$36$lq_anf$36$$35$$35$7205759403792815480$35$$35$d5GU$35$$35$k_$35$$35$803 lq_anf$36$$35$$35$7205759403792815480$35$$35$d5GU) (= lq_karg$36$n$35$$35$a1wt$35$$35$k_$35$$35$803 n$35$$35$a1wt) (exists ((VV$35$$35$F$35$$35$9 Int)) (and (= VV$35$$35$F$35$$35$9 n$35$$35$a1wt) (= lq_karg$36$VV$35$$35$802$35$$35$k_$35$$35$803 VV$35$$35$F$35$$35$9) (= lq_karg$36$lq_anf$36$$35$$35$7205759403792815477$35$$35$d5GR$35$$35$k_$35$$35$803 lq_anf$36$$35$$35$7205759403792815477$35$$35$d5GR) (= lq_karg$36$lq_anf$36$$35$$35$7205759403792815478$35$$35$d5GS$35$$35$k_$35$$35$803 lq_anf$36$$35$$35$7205759403792815478$35$$35$d5GS) (= lq_karg$36$lq_anf$36$$35$$35$7205759403792815479$35$$35$d5GT$35$$35$k_$35$$35$803 lq_anf$36$$35$$35$7205759403792815479$35$$35$d5GT) (= lq_karg$36$lq_anf$36$$35$$35$7205759403792815480$35$$35$d5GU$35$$35$k_$35$$35$803 lq_anf$36$$35$$35$7205759403792815480$35$$35$d5GU) (= lq_karg$36$n$35$$35$a1wt$35$$35$k_$35$$35$803 n$35$$35$a1wt))))) b$36$$35$$35$67 b$36$$35$$35$139 b$36$$35$$35$140 b$36$$35$$35$141 b$36$$35$$35$142 b$36$$35$$35$143 b$36$$35$$35$144 b$36$$35$$35$85))
(push 1)
(assert (not (<= 2 VV$35$$35$F$35$$35$8)))
(check-sat)
; SMT Says: Unsat
(pop 1)
(pop 1)
(push 1)
(assert (and true b$36$$35$$35$128 b$36$$35$$35$67 b$36$$35$$35$136 b$36$$35$$35$137 b$36$$35$$35$177 b$36$$35$$35$85 b$36$$35$$35$123 b$36$$35$$35$124 b$36$$35$$35$125 b$36$$35$$35$127))
(push 1)
(assert (not (>= VV$35$$35$F$35$$35$12 0)))
(check-sat)
; SMT Says: Unsat
(pop 1)
(pop 1)
(push 1)
(assert (and true b$36$$35$$35$128 b$36$$35$$35$129 b$36$$35$$35$130 b$36$$35$$35$67 b$36$$35$$35$131 b$36$$35$$35$132 b$36$$35$$35$133 b$36$$35$$35$134 b$36$$35$$35$135 b$36$$35$$35$178 b$36$$35$$35$85 b$36$$35$$35$123 b$36$$35$$35$124 b$36$$35$$35$125 b$36$$35$$35$127))
(push 1)
(assert (not (>= VV$35$$35$F$35$$35$13 0)))
(check-sat)
; SMT Says: Unsat
(pop 1)
(pop 1)
(push 1)
(assert (and true b$36$$35$$35$128 b$36$$35$$35$129 b$36$$35$$35$130 b$36$$35$$35$67 b$36$$35$$35$131 b$36$$35$$35$132 b$36$$35$$35$133 b$36$$35$$35$134 b$36$$35$$35$179 b$36$$35$$35$85 b$36$$35$$35$123 b$36$$35$$35$124 b$36$$35$$35$125 b$36$$35$$35$127))
(push 1)
(assert (not (>= VV$35$$35$F$35$$35$14 0)))
(check-sat)
; SMT Says: Unsat
(pop 1)
(pop 1)
(push 1)
(assert (and true b$36$$35$$35$96 b$36$$35$$35$97 b$36$$35$$35$98 b$36$$35$$35$67 b$36$$35$$35$99 b$36$$35$$35$100 b$36$$35$$35$101 b$36$$35$$35$102 b$36$$35$$35$103 b$36$$35$$35$104 b$36$$35$$35$105 b$36$$35$$35$106 b$36$$35$$35$107 b$36$$35$$35$108 b$36$$35$$35$109 b$36$$35$$35$110 b$36$$35$$35$113 b$36$$35$$35$85 b$36$$35$$35$181 b$36$$35$$35$95))
(push 1)
(assert (not false))
(check-sat)
; SMT Says: Unsat
(pop 1)
(pop 1)
(pop 1)
(pop 1)
